Version identifier: 20.1.0.0 | 2020-11-10 | 9bedb6d68
Tried aggregator 2 times.
MIP Presolve eliminated 2444 rows and 1218 columns.
MIP Presolve modified 6280 coefficients.
Aggregator did 232 substitutions.
Reduced MIP has 3733 rows, 2965 columns, and 12236 nonzeros.
Reduced MIP has 595 binaries, 2370 generals, 0 SOSs, and 0 indicators.
Presolve time = 0.03 sec. (15.38 ticks)
Probing fixed 80 vars, tightened 685 bounds.
Probing time = 0.01 sec. (1.46 ticks)
Tried aggregator 3 times.
Detecting symmetries...
MIP Presolve eliminated 1533 rows and 125 columns.
MIP Presolve modified 313 coefficients.
Aggregator did 33 substitutions.
Reduced MIP has 2167 rows, 2807 columns, and 7058 nonzeros.
Reduced MIP has 927 binaries, 1880 generals, 0 SOSs, and 0 indicators.
Presolve time = 0.03 sec. (12.15 ticks)
Probing fixed 0 vars, tightened 9 bounds.
Probing time = 0.00 sec. (0.60 ticks)
Clique table members: 88.
MIP emphasis: balance optimality and feasibility.
MIP search method: dynamic search.
Parallel mode: deterministic, using up to 24 threads.
Root relaxation solution time = 0.03 sec. (7.99 ticks)

        Nodes                                         Cuts/
   Node  Left     Objective  IInf  Best Integer    Best Bound    ItCnt     Gap

      0     0        0.0000    78                      0.0000      552         
*     0+    0                           17.0000        0.0000           100.00%
      0     0        0.0000    93       17.0000     Cuts: 243      835  100.00%
      0     0        0.0000    45       17.0000      Cuts: 70      975  100.00%
      0     0        0.0000   138       17.0000      Cuts: 78     1088  100.00%
*     0+    0                           14.0000        0.0000           100.00%
*     0+    0                           10.0000        0.0000           100.00%
      0     0        cutoff             10.0000       10.0000     1088    0.00%
Elapsed time = 1.09 sec. (298.25 ticks, tree = 0.01 MB, solutions = 3)

Implied bound cuts applied:  101
Flow cuts applied:  1
Mixed integer rounding cuts applied:  12
Zero-half cuts applied:  105
Lift and project cuts applied:  15
Gomory fractional cuts applied:  35

Root node processing (before b&c):
  Real time             =    1.09 sec. (298.48 ticks)
Parallel b&c, 24 threads:
  Real time             =    0.00 sec. (0.00 ticks)
  Sync time (average)   =    0.00 sec.
  Wait time (average)   =    0.00 sec.
                          ------------
Total (root+branch&cut) =    1.09 sec. (298.48 ticks)

Solution status = Optimal
Solution LB = 10
Solution UB = 10
Runtime = 1.10621 seconds
	Command being timed: "/home/min/git_repos/CS598MEBProject/CNT-ILP/build/cnt -s 2 ./output/k8_n40/simC_c1_k8_n40_u1_s1_del02.input-left.cnp"
	User time (seconds): 13.64
	System time (seconds): 0.15
	Percent of CPU this job got: 1188%
	Elapsed (wall clock) time (h:mm:ss or m:ss): 0:01.16
	Average shared text size (kbytes): 0
	Average unshared data size (kbytes): 0
	Average stack size (kbytes): 0
	Average total size (kbytes): 0
	Maximum resident set size (kbytes): 168152
	Average resident set size (kbytes): 0
	Major (requiring I/O) page faults: 0
	Minor (reclaiming a frame) page faults: 42063
	Voluntary context switches: 5594
	Involuntary context switches: 1880
	Swaps: 0
	File system inputs: 0
	File system outputs: 16
	Socket messages sent: 0
	Socket messages received: 0
	Signals delivered: 0
	Page size (bytes): 4096
	Exit status: 0
